

******************************************************************************
This program contains Ipopt, a library for large-scale nonlinear optimization.
 Ipopt is released as open source code under the Eclipse Public License (EPL).
         For more information visit http://projects.coin-or.org/Ipopt
******************************************************************************

This is Ipopt version 3.12.8, running with linear solver mumps.
NOTE: Other linear solvers might be more efficient (see Ipopt documentation).

Number of nonzeros in equality constraint Jacobian...:        0
Number of nonzeros in inequality constraint Jacobian.:       46
Number of nonzeros in Lagrangian Hessian.............:       15

Total number of variables............................:       13
                     variables with only lower bounds:        0
                variables with lower and upper bounds:       13
                     variables with only upper bounds:        0
Total number of equality constraints.................:        0
Total number of inequality constraints...............:       15
        inequality constraints with only lower bounds:       14
   inequality constraints with lower and upper bounds:        0
        inequality constraints with only upper bounds:        1

iter    objective    inf_pr   inf_du lg(mu)  ||d||  lg(rg) alpha_du alpha_pr  ls
   0  4.4551001e+02 1.96e+02 1.00e+00  -1.0 0.00e+00    -  0.00e+00 0.00e+00   0
   1  4.4098851e+02 1.91e+02 9.71e-01  -1.0 1.28e+02    -  3.36e-02 3.53e-02f  1
   2  3.8451324e+02 1.35e+02 2.64e+00  -1.0 1.91e+02    -  5.05e-02 2.96e-01f  1
   3  3.7941841e+02 1.29e+02 1.07e+02  -1.0 1.35e+02    -  6.66e-01 3.78e-02f  1
   4  3.3498720e+02 8.50e+01 7.32e+01  -1.0 1.30e+02    -  4.84e-01 3.43e-01f  1
   5  2.7905911e+02 2.91e+01 1.90e+02  -1.0 1.21e+02    -  8.28e-03 4.62e-01f  1
   6  2.6927670e+02 1.93e+01 1.67e+02  -1.0 2.28e+02    -  6.26e-02 4.29e-02f  1
   7  2.4556493e+02 6.35e+00 8.82e+02  -1.0 1.72e+02    -  7.33e-01 1.38e-01f  1
   8  1.6492879e+02 3.54e+00 3.97e+02  -1.0 4.21e+02    -  1.41e-01 4.85e-01f  1
   9  1.0899679e+02 6.97e-01 1.22e+02  -1.0 2.89e+02    -  7.04e-01 6.87e-01f  1
iter    objective    inf_pr   inf_du lg(mu)  ||d||  lg(rg) alpha_du alpha_pr  ls
  10  1.0362804e+02 3.94e-01 1.22e+02  -1.0 5.09e+01    -  4.70e-01 3.53e-01f  1
  11  1.0069288e+02 1.53e-01 3.21e+01  -1.0 2.24e+01    -  3.49e-01 4.93e-01f  1
  12  9.8742586e+01 2.87e-02 2.64e+01  -1.0 1.10e+01    -  1.00e+00 9.31e-01f  1
  13  9.8903084e+01 0.00e+00 1.27e-01  -1.0 1.99e+00    -  1.00e+00 1.00e+00f  1
  14  9.7704598e+01 1.37e-03 2.92e+00  -2.5 2.03e+00    -  1.00e+00 9.43e-01f  1
  15  9.7624793e+01 0.00e+00 5.05e-03  -2.5 2.74e-01    -  1.00e+00 1.00e+00h  1
  16  9.7594857e+01 7.43e-04 6.82e-02  -3.8 6.61e-02    -  8.55e-01 8.22e-01h  1
  17  9.7590204e+01 0.00e+00 1.12e-01  -3.8 1.36e-01    -  1.00e+00 8.28e-01f  1
  18  9.7589459e+01 0.00e+00 4.52e-04  -3.8 2.37e-02    -  1.00e+00 1.00e+00f  1
  19  9.7587592e+01 0.00e+00 8.33e-03  -5.7 1.21e-02    -  9.76e-01 9.41e-01h  1
iter    objective    inf_pr   inf_du lg(mu)  ||d||  lg(rg) alpha_du alpha_pr  ls
  20  9.7587495e+01 0.00e+00 1.17e-06  -5.7 5.89e-04    -  1.00e+00 1.00e+00f  1
  21  9.7587477e+01 0.00e+00 3.39e+00  -8.6 8.54e-05    -  1.00e+00 7.76e-01h  1
  22  9.7587473e+01 0.00e+00 2.91e+01  -8.6 2.00e-05    -  8.48e-01 1.00e+00f  1
In iteration 22, 1 Slack too small, adjusting variable bound
  23  9.7587473e+01 0.00e+00 1.72e+01  -8.6 4.25e-05    -  1.00e+00 4.21e-01h  1
  24  9.7587473e+01 0.00e+00 7.05e-07  -8.6 2.45e-05    -  1.00e+00 1.00e+00f  1
  25  9.7587473e+01 0.00e+00 8.58e-10  -8.6 1.01e-05    -  1.00e+00 1.00e+00h  1

Number of Iterations....: 25

                                   (scaled)                 (unscaled)
Objective...............:   9.7587473163161150e+01    9.7587473163161150e+01
Dual infeasibility......:   8.5802877956184587e-10    8.5802877956184587e-10
Constraint violation....:   0.0000000000000000e+00    0.0000000000000000e+00
Complementarity.........:   2.5838129666056881e-09    2.5838129666056881e-09
Overall NLP error.......:   2.5838129666056881e-09    2.5838129666056881e-09


Number of objective function evaluations             = 26
Number of objective gradient evaluations             = 26
Number of equality constraint evaluations            = 0
Number of inequality constraint evaluations          = 26
Number of equality constraint Jacobian evaluations   = 0
Number of inequality constraint Jacobian evaluations = 26
Number of Lagrangian Hessian evaluations             = 25
Total CPU secs in IPOPT (w/o function evaluations)   =      0.003
Total CPU secs in NLP function evaluations           =      0.000

EXIT: Optimal Solution Found.
 
Ipopt 3.12.8: Optimal Solution Found
